c description: Subset cardinality formula for fast_gnp_random_graph(6,8,0.9)
c generator: CNFgen (0.9.0)
c copyright: (C) 2012-2020 Massimo Lauria <massimo.lauria@uniroma1.it>
c url: https://massimolauria.net/cnfgen
c
p cnf 41 291
1 2 3 4 0
1 2 3 5 0
1 2 3 6 0
1 2 3 7 0
1 2 4 5 0
1 2 4 6 0
1 2 4 7 0
1 2 5 6 0
1 2 5 7 0
1 2 6 7 0
1 3 4 5 0
1 3 4 6 0
1 3 4 7 0
1 3 5 6 0
1 3 5 7 0
1 3 6 7 0
1 4 5 6 0
1 4 5 7 0
1 4 6 7 0
1 5 6 7 0
2 3 4 5 0
2 3 4 6 0
2 3 4 7 0
2 3 5 6 0
2 3 5 7 0
2 3 6 7 0
2 4 5 6 0
2 4 5 7 0
2 4 6 7 0
2 5 6 7 0
3 4 5 6 0
3 4 5 7 0
3 4 6 7 0
3 5 6 7 0
4 5 6 7 0
8 9 10 11 12 0
8 9 10 11 13 0
8 9 10 11 14 0
8 9 10 11 15 0
8 9 10 12 13 0
8 9 10 12 14 0
8 9 10 12 15 0
8 9 10 13 14 0
8 9 10 13 15 0
8 9 10 14 15 0
8 9 11 12 13 0
8 9 11 12 14 0
8 9 11 12 15 0
8 9 11 13 14 0
8 9 11 13 15 0
8 9 11 14 15 0
8 9 12 13 14 0
8 9 12 13 15 0
8 9 12 14 15 0
8 9 13 14 15 0
8 10 11 12 13 0
8 10 11 12 14 0
8 10 11 12 15 0
8 10 11 13 14 0
8 10 11 13 15 0
8 10 11 14 15 0
8 10 12 13 14 0
8 10 12 13 15 0
8 10 12 14 15 0
8 10 13 14 15 0
8 11 12 13 14 0
8 11 12 13 15 0
8 11 12 14 15 0
8 11 13 14 15 0
8 12 13 14 15 0
9 10 11 12 13 0
9 10 11 12 14 0
9 10 11 12 15 0
9 10 11 13 14 0
9 10 11 13 15 0
9 10 11 14 15 0
9 10 12 13 14 0
9 10 12 13 15 0
9 10 12 14 15 0
9 10 13 14 15 0
9 11 12 13 14 0
9 11 12 13 15 0
9 11 12 14 15 0
9 11 13 14 15 0
9 12 13 14 15 0
10 11 12 13 14 0
10 11 12 13 15 0
10 11 12 14 15 0
10 11 13 14 15 0
10 12 13 14 15 0
11 12 13 14 15 0
16 17 18 19 0
16 17 18 20 0
16 17 18 21 0
16 17 18 22 0
16 17 19 20 0
16 17 19 21 0
16 17 19 22 0
16 17 20 21 0
16 17 20 22 0
16 17 21 22 0
16 18 19 20 0
16 18 19 21 0
16 18 19 22 0
16 18 20 21 0
16 18 20 22 0
16 18 21 22 0
16 19 20 21 0
16 19 20 22 0
16 19 21 22 0
16 20 21 22 0
17 18 19 20 0
17 18 19 21 0
17 18 19 22 0
17 18 20 21 0
17 18 20 22 0
17 18 21 22 0
17 19 20 21 0
17 19 20 22 0
17 19 21 22 0
17 20 21 22 0
18 19 20 21 0
18 19 20 22 0
18 19 21 22 0
18 20 21 22 0
19 20 21 22 0
23 24 25 0
23 24 26 0
23 24 27 0
23 25 26 0
23 25 27 0
23 26 27 0
24 25 26 0
24 25 27 0
24 26 27 0
25 26 27 0
28 29 30 31 0
28 29 30 32 0
28 29 30 33 0
28 29 30 34 0
28 29 31 32 0
28 29 31 33 0
28 29 31 34 0
28 29 32 33 0
28 29 32 34 0
28 29 33 34 0
28 30 31 32 0
28 30 31 33 0
28 30 31 34 0
28 30 32 33 0
28 30 32 34 0
28 30 33 34 0
28 31 32 33 0
28 31 32 34 0
28 31 33 34 0
28 32 33 34 0
29 30 31 32 0
29 30 31 33 0
29 30 31 34 0
29 30 32 33 0
29 30 32 34 0
29 30 33 34 0
29 31 32 33 0
29 31 32 34 0
29 31 33 34 0
29 32 33 34 0
30 31 32 33 0
30 31 32 34 0
30 31 33 34 0
30 32 33 34 0
31 32 33 34 0
35 36 37 38 0
35 36 37 39 0
35 36 37 40 0
35 36 37 41 0
35 36 38 39 0
35 36 38 40 0
35 36 38 41 0
35 36 39 40 0
35 36 39 41 0
35 36 40 41 0
35 37 38 39 0
35 37 38 40 0
35 37 38 41 0
35 37 39 40 0
35 37 39 41 0
35 37 40 41 0
35 38 39 40 0
35 38 39 41 0
35 38 40 41 0
35 39 40 41 0
36 37 38 39 0
36 37 38 40 0
36 37 38 41 0
36 37 39 40 0
36 37 39 41 0
36 37 40 41 0
36 38 39 40 0
36 38 39 41 0
36 38 40 41 0
36 39 40 41 0
37 38 39 40 0
37 38 39 41 0
37 38 40 41 0
37 39 40 41 0
38 39 40 41 0
-8 -16 -23 0
-8 -16 -28 0
-8 -16 -35 0
-8 -23 -28 0
-8 -23 -35 0
-8 -28 -35 0
-16 -23 -28 0
-16 -23 -35 0
-16 -28 -35 0
-23 -28 -35 0
-1 -9 -17 0
-1 -9 -29 0
-1 -9 -36 0
-1 -17 -29 0
-1 -17 -36 0
-1 -29 -36 0
-9 -17 -29 0
-9 -17 -36 0
-9 -29 -36 0
-17 -29 -36 0
-2 -10 -18 0
-2 -10 -30 0
-2 -10 -37 0
-2 -18 -30 0
-2 -18 -37 0
-2 -30 -37 0
-10 -18 -30 0
-10 -18 -37 0
-10 -30 -37 0
-18 -30 -37 0
-3 -11 -19 0
-3 -11 -31 0
-3 -11 -38 0
-3 -19 -31 0
-3 -19 -38 0
-3 -31 -38 0
-11 -19 -31 0
-11 -19 -38 0
-11 -31 -38 0
-19 -31 -38 0
-4 -12 -20 0
-4 -12 -24 0
-4 -12 -32 0
-4 -20 -24 0
-4 -20 -32 0
-4 -24 -32 0
-12 -20 -24 0
-12 -20 -32 0
-12 -24 -32 0
-20 -24 -32 0
-5 -13 -21 0
-5 -13 -25 0
-5 -13 -39 0
-5 -21 -25 0
-5 -21 -39 0
-5 -25 -39 0
-13 -21 -25 0
-13 -21 -39 0
-13 -25 -39 0
-21 -25 -39 0
-6 -14 -22 -26 0
-6 -14 -22 -33 0
-6 -14 -22 -40 0
-6 -14 -26 -33 0
-6 -14 -26 -40 0
-6 -14 -33 -40 0
-6 -22 -26 -33 0
-6 -22 -26 -40 0
-6 -22 -33 -40 0
-6 -26 -33 -40 0
-14 -22 -26 -33 0
-14 -22 -26 -40 0
-14 -22 -33 -40 0
-14 -26 -33 -40 0
-22 -26 -33 -40 0
-7 -15 -27 0
-7 -15 -34 0
-7 -15 -41 0
-7 -27 -34 0
-7 -27 -41 0
-7 -34 -41 0
-15 -27 -34 0
-15 -27 -41 0
-15 -34 -41 0
-27 -34 -41 0